language Essence 1.3

letting length be 5

$ vincular mix param file
$ mesh_avoidance = permutation + mesh pieces + vincular indeces

letting mixed_avoidance be { ( sequence(1,4,2,3), relation( (2,1), (3,2), (0,2), (2,3) ), {1} ) } 
